c Generated map
c Size: 15 * 15, weights in range: 1 to 10, walls: True, with ratio 0.1
c dim 1 of 4
c
p sp 225 341
c graph contains 225 nodes and 341 arcs
c
a 1 16 10
a 16 1 10
a 1 2 6
a 2 1 6
a 2 17 6
a 17 2 6
a 2 3 2
a 3 2 2
a 3 18 5
a 18 3 5
a 3 4 9
a 4 3 9
a 4 19 5
a 19 4 5
a 4 5 6
a 5 4 6
a 5 20 9
a 20 5 9
a 7 22 8
a 22 7 8
a 7 8 1
a 8 7 1
a 8 23 1
a 23 8 1
a 10 25 10
a 25 10 10
a 12 27 4
a 27 12 4
a 12 13 9
a 13 12 9
a 13 28 5
a 28 13 5
a 13 14 9
a 14 13 9
a 14 29 9
a 29 14 9
a 14 15 5
a 15 14 5
a 15 30 10
a 30 15 10
a 16 31 10
a 31 16 10
a 16 17 9
a 17 16 9
a 17 18 2
a 18 17 2
a 18 33 6
a 33 18 6
a 18 19 7
a 19 18 7
a 19 34 7
a 34 19 7
a 19 20 2
a 20 19 2
a 20 35 6
a 35 20 6
a 20 21 5
a 21 20 5
a 21 36 3
a 36 21 3
a 21 22 5
a 22 21 5
a 22 37 8
a 37 22 8
a 22 23 8
a 23 22 8
a 23 38 10
a 38 23 10
a 23 24 3
a 24 23 3
a 24 39 9
a 39 24 9
a 24 25 4
a 25 24 4
a 25 26 3
a 26 25 3
a 26 27 8
a 27 26 8
a 27 42 3
a 42 27 3
a 27 28 3
a 28 27 3
a 28 43 4
a 43 28 4
a 28 29 2
a 29 28 2
a 29 44 7
a 44 29 7
a 29 30 10
a 30 29 10
a 30 45 3
a 45 30 3
a 31 46 3
a 46 31 3
a 33 48 3
a 48 33 3
a 33 34 8
a 34 33 8
a 34 49 5
a 49 34 5
a 34 35 3
a 35 34 3
a 35 50 10
a 50 35 10
a 35 36 3
a 36 35 3
a 36 51 7
a 51 36 7
a 36 37 9
a 37 36 9
a 37 52 8
a 52 37 8
a 37 38 2
a 38 37 2
a 38 53 2
a 53 38 2
a 38 39 2
a 39 38 2
a 42 57 10
a 57 42 10
a 42 43 1
a 43 42 1
a 43 44 7
a 44 43 7
a 44 59 8
a 59 44 8
a 44 45 4
a 45 44 4
a 45 60 6
a 60 45 6
a 46 61 2
a 61 46 2
a 46 47 2
a 47 46 2
a 47 62 8
a 62 47 8
a 47 48 4
a 48 47 4
a 48 63 10
a 63 48 10
a 48 49 1
a 49 48 1
a 49 64 10
a 64 49 10
a 49 50 5
a 50 49 5
a 50 65 6
a 65 50 6
a 50 51 10
a 51 50 10
a 51 66 7
a 66 51 7
a 51 52 10
a 52 51 10
a 52 67 1
a 67 52 1
a 52 53 1
a 53 52 1
a 53 68 10
a 68 53 10
a 56 71 3
a 71 56 3
a 56 57 9
a 57 56 9
a 57 72 5
a 72 57 5
a 59 74 3
a 74 59 3
a 59 60 2
a 60 59 2
a 60 75 10
a 75 60 10
a 61 76 2
a 76 61 2
a 61 62 3
a 62 61 3
a 62 77 1
a 77 62 1
a 62 63 7
a 63 62 7
a 63 78 1
a 78 63 1
a 63 64 10
a 64 63 10
a 64 79 3
a 79 64 3
a 64 65 7
a 65 64 7
a 65 80 3
a 80 65 3
a 65 66 5
a 66 65 5
a 66 81 9
a 81 66 9
a 66 67 3
a 67 66 3
a 67 82 5
a 82 67 5
a 67 68 9
a 68 67 9
a 68 83 10
a 83 68 10
a 68 69 8
a 69 68 8
a 69 84 10
a 84 69 10
a 69 70 5
a 70 69 5
a 70 85 1
a 85 70 1
a 70 71 2
a 71 70 2
a 71 86 6
a 86 71 6
a 71 72 10
a 72 71 10
a 72 87 1
a 87 72 1
a 72 73 1
a 73 72 1
a 73 88 7
a 88 73 7
a 73 74 9
a 74 73 9
a 74 75 6
a 75 74 6
a 75 90 8
a 90 75 8
a 76 91 8
a 91 76 8
a 76 77 7
a 77 76 7
a 77 92 8
a 92 77 8
a 77 78 7
a 78 77 7
a 78 93 10
a 93 78 10
a 78 79 3
a 79 78 3
a 79 94 5
a 94 79 5
a 79 80 4
a 80 79 4
a 80 95 8
a 95 80 8
a 80 81 9
a 81 80 9
a 81 96 3
a 96 81 3
a 81 82 7
a 82 81 7
a 82 97 1
a 97 82 1
a 82 83 6
a 83 82 6
a 83 98 8
a 98 83 8
a 83 84 9
a 84 83 9
a 84 99 10
a 99 84 10
a 84 85 7
a 85 84 7
a 85 100 3
a 100 85 3
a 85 86 7
a 86 85 7
a 86 101 4
a 101 86 4
a 86 87 9
a 87 86 9
a 87 102 8
a 102 87 8
a 87 88 1
a 88 87 1
a 88 103 8
a 103 88 8
a 90 105 5
a 105 90 5
a 91 106 5
a 106 91 5
a 91 92 7
a 92 91 7
a 92 107 2
a 107 92 2
a 92 93 5
a 93 92 5
a 93 108 10
a 108 93 10
a 93 94 10
a 94 93 10
a 94 109 3
a 109 94 3
a 94 95 8
a 95 94 8
a 95 110 5
a 110 95 5
a 95 96 9
a 96 95 9
a 96 97 2
a 97 96 2
a 97 112 10
a 112 97 10
a 97 98 7
a 98 97 7
a 98 113 8
a 113 98 8
a 98 99 7
a 99 98 7
a 99 100 5
a 100 99 5
a 100 115 9
a 115 100 9
a 100 101 6
a 101 100 6
a 101 116 4
a 116 101 4
a 101 102 7
a 102 101 7
a 102 117 5
a 117 102 5
a 102 103 5
a 103 102 5
a 103 118 8
a 118 103 8
a 103 104 5
a 104 103 5
a 104 119 6
a 119 104 6
a 104 105 2
a 105 104 2
a 105 120 9
a 120 105 9
a 106 121 2
a 121 106 2
a 106 107 9
a 107 106 9
a 107 122 7
a 122 107 7
a 107 108 4
a 108 107 4
a 108 123 3
a 123 108 3
a 108 109 1
a 109 108 1
a 109 124 10
a 124 109 10
a 109 110 8
a 110 109 8
a 110 125 7
a 125 110 7
a 112 127 7
a 127 112 7
a 112 113 10
a 113 112 10
a 113 128 9
a 128 113 9
a 115 130 8
a 130 115 8
a 115 116 8
a 116 115 8
a 116 131 3
a 131 116 3
a 116 117 10
a 117 116 10
a 117 132 4
a 132 117 4
a 117 118 4
a 118 117 4
a 118 133 9
a 133 118 9
a 118 119 3
a 119 118 3
a 119 134 4
a 134 119 4
a 119 120 10
a 120 119 10
a 120 135 5
a 135 120 5
a 121 136 3
a 136 121 3
a 121 122 5
a 122 121 5
a 122 137 1
a 137 122 1
a 122 123 9
a 123 122 9
a 123 138 5
a 138 123 5
a 123 124 5
a 124 123 5
a 124 139 7
a 139 124 7
a 124 125 1
a 125 124 1
a 125 140 3
a 140 125 3
a 125 126 2
a 126 125 2
a 126 141 5
a 141 126 5
a 126 127 1
a 127 126 1
a 127 142 7
a 142 127 7
a 127 128 3
a 128 127 3
a 128 143 5
a 143 128 5
a 128 129 5
a 129 128 5
a 129 144 3
a 144 129 3
a 129 130 5
a 130 129 5
a 130 145 8
a 145 130 8
a 130 131 9
a 131 130 9
a 131 132 8
a 132 131 8
a 132 147 7
a 147 132 7
a 132 133 1
a 133 132 1
a 133 148 7
a 148 133 7
a 133 134 4
a 134 133 4
a 134 135 2
a 135 134 2
a 135 150 7
a 150 135 7
a 136 151 3
a 151 136 3
a 136 137 2
a 137 136 2
a 137 152 3
a 152 137 3
a 137 138 1
a 138 137 1
a 138 153 3
a 153 138 3
a 138 139 9
a 139 138 9
a 139 154 8
a 154 139 8
a 139 140 8
a 140 139 8
a 140 155 3
a 155 140 3
a 140 141 8
a 141 140 8
a 141 156 4
a 156 141 4
a 141 142 8
a 142 141 8
a 142 157 2
a 157 142 2
a 142 143 5
a 143 142 5
a 143 158 6
a 158 143 6
a 143 144 6
a 144 143 6
a 144 159 9
a 159 144 9
a 144 145 4
a 145 144 4
a 145 160 9
a 160 145 9
a 147 148 2
a 148 147 2
a 148 163 8
a 163 148 8
a 150 165 3
a 165 150 3
a 151 166 8
a 166 151 8
a 151 152 5
a 152 151 5
a 152 167 7
a 167 152 7
a 152 153 4
a 153 152 4
a 153 168 2
a 168 153 2
a 153 154 1
a 154 153 1
a 154 169 5
a 169 154 5
a 154 155 1
a 155 154 1
a 155 170 2
a 170 155 2
a 155 156 2
a 156 155 2
a 156 171 1
a 171 156 1
a 156 157 10
a 157 156 10
a 157 172 4
a 172 157 4
a 157 158 4
a 158 157 4
a 158 159 4
a 159 158 4
a 159 174 4
a 174 159 4
a 159 160 4
a 160 159 4
a 160 161 6
a 161 160 6
a 161 176 1
a 176 161 1
a 163 178 6
a 178 163 6
a 163 164 8
a 164 163 8
a 164 179 6
a 179 164 6
a 164 165 2
a 165 164 2
a 165 180 6
a 180 165 6
a 166 181 3
a 181 166 3
a 166 167 2
a 167 166 2
a 167 182 1
a 182 167 1
a 167 168 3
a 168 167 3
a 168 183 2
a 183 168 2
a 168 169 10
a 169 168 10
a 169 184 7
a 184 169 7
a 169 170 3
a 170 169 3
a 170 185 8
a 185 170 8
a 170 171 3
a 171 170 3
a 171 186 9
a 186 171 9
a 171 172 7
a 172 171 7
a 172 187 1
a 187 172 1
a 174 189 1
a 189 174 1
a 176 191 1
a 191 176 1
a 176 177 9
a 177 176 9
a 177 192 9
a 192 177 9
a 177 178 2
a 178 177 2
a 178 193 10
a 193 178 10
a 178 179 6
a 179 178 6
a 179 194 8
a 194 179 8
a 179 180 8
a 180 179 8
a 180 195 5
a 195 180 5
a 181 196 8
a 196 181 8
a 181 182 1
a 182 181 1
a 182 197 4
a 197 182 4
a 182 183 3
a 183 182 3
a 183 198 6
a 198 183 6
a 183 184 4
a 184 183 4
a 184 199 2
a 199 184 2
a 184 185 10
a 185 184 10
a 185 186 4
a 186 185 4
a 186 201 8
a 201 186 8
a 186 187 10
a 187 186 10
a 187 202 1
a 202 187 1
a 187 188 1
a 188 187 1
a 188 203 4
a 203 188 4
a 188 189 4
a 189 188 4
a 189 204 4
a 204 189 4
a 189 190 5
a 190 189 5
a 190 205 6
a 205 190 6
a 190 191 1
a 191 190 1
a 191 206 2
a 206 191 2
a 191 192 2
a 192 191 2
a 192 207 3
a 207 192 3
a 192 193 8
a 193 192 8
a 193 208 10
a 208 193 10
a 193 194 2
a 194 193 2
a 194 195 10
a 195 194 10
a 195 210 3
a 210 195 3
a 196 211 6
a 211 196 6
a 196 197 9
a 197 196 9
a 197 198 4
a 198 197 4
a 198 213 10
a 213 198 10
a 198 199 6
a 199 198 6
a 199 214 1
a 214 199 1
a 201 216 6
a 216 201 6
a 201 202 7
a 202 201 7
a 202 217 4
a 217 202 4
a 202 203 9
a 203 202 9
a 203 218 2
a 218 203 2
a 203 204 2
a 204 203 2
a 204 219 4
a 219 204 4
a 204 205 4
a 205 204 4
a 205 220 9
a 220 205 9
a 205 206 8
a 206 205 8
a 206 207 2
a 207 206 2
a 207 222 10
a 222 207 10
a 207 208 7
a 208 207 7
a 210 225 8
a 225 210 8
a 213 214 9
a 214 213 9
a 214 215 8
a 215 214 8
a 215 216 2
a 216 215 2
a 216 217 6
a 217 216 6
a 217 218 4
a 218 217 4
a 218 219 10
a 219 218 10
a 219 220 7
a 220 219 7
a 224 225 3
a 225 224 3
